p cnf 28 35
-10 -26 -28 0
-4 -8 15 0
-24 -13 6 0
4 12 -6 0
-18 17 -18 0
21 1 21 0
2 12 11 0
7 14 -2 0
21 -24 28 0
-1 -2 -3 -4 -5 -6 -7 -8 -9 -10 -11 -12 -13 -14 -15 -16 -17 -18 -19 -20 -21 -22 -23 -24 -25 -26 -27 -28 0
-27 10 12 0
-1 26 18 0
-4 8 -18 0
23 -8 23 0
1 2 3 4 5 6 7 8 9 10 11 12 13 14 15 16 17 18 19 20 21 22 23 24 25 26 27 28 0
7 -24 -28 0
-13 21 11 0
1 3 8 0
22 -6 -9 0
23 2 -16 0
20 13 15 0
-3 -4 21 0
16 -27 -23 0
-5 24 3 0
-13 -21 -18 0
-8 -7 -3 0
-5 26 -22 0
-8 -7 24 0
4 -17 -28 0
-4 -5 2 0
-26 -9 23 0
10 -12 -24 0
9 -11 -8 0
-6 1 13 0
-4 7 -6 0
